
******************************************************************************
This program contains Ipopt, a library for large-scale nonlinear optimization.
 Ipopt is released as open source code under the Eclipse Public License (EPL).
         For more information visit http://projects.coin-or.org/Ipopt
******************************************************************************

This is Ipopt version 3.12.6, running with linear solver ma57.

Number of nonzeros in equality constraint Jacobian...:    17493
Number of nonzeros in inequality constraint Jacobian.:        0
Number of nonzeros in Lagrangian Hessian.............:    14995

Total number of variables............................:     9997
                     variables with only lower bounds:        0
                variables with lower and upper bounds:        0
                     variables with only upper bounds:        0
Total number of equality constraints.................:     7497
Total number of inequality constraints...............:        0
        inequality constraints with only lower bounds:        0
   inequality constraints with lower and upper bounds:        0
        inequality constraints with only upper bounds:        0

iter    objective    inf_pr   inf_du lg(mu)  ||d||  lg(rg) alpha_du alpha_pr  ls
   0  1.4994000e+04 1.00e+01 4.47e+00  -1.0 0.00e+00    -  0.00e+00 0.00e+00   0
   1  9.7117244e+03 4.00e+00 2.03e+01  -1.0 2.00e+00  -4.0 1.00e+00 1.00e+00f  1
Reallocating memory for MA57: lfact (1059926)
Reallocating memory for MA57: lfact (1137201)
Reallocating memory for MA57: lfact (1648068)
   2  9.7066411e+03 7.50e+00 1.20e+05  -1.0 7.67e+03  -0.9 1.00e+00 2.44e-04f 13
   3  9.7014171e+03 1.65e+01 1.20e+05  -1.0 3.71e+03   1.4 1.00e+00 9.77e-04f 11
   4  9.9144882e+03 2.41e+01 1.20e+05  -1.0 2.35e+03   0.9 1.00e+00 1.95e-03h 10
   5  9.9647249e+03 2.41e+01 1.20e+05  -1.0 4.39e+03   0.4 1.00e+00 4.88e-04h 12
   6  2.8454693e+04 3.17e+01 4.87e+05  -1.0 6.20e+02  -0.1 1.00e+00 1.56e-02h  7
   7  1.5125018e+04 9.93e+00 5.62e+08  -1.0 3.11e+00   7.8 1.00e+00 1.00e+00f  1
   8  9.2044935e+04 3.10e+02 5.35e+10  -1.0 4.50e+00   7.3 1.00e+00 1.00e+00H  1
   9  1.4976518e+04 7.66e+01 2.84e+10  -1.0 8.72e+00   9.5 1.00e+00 1.00e+00f  1
iter    objective    inf_pr   inf_du lg(mu)  ||d||  lg(rg) alpha_du alpha_pr  ls
  10  1.1524770e+04 1.71e+01 9.64e+09  -1.0 4.47e+00   9.1 1.00e+00 1.00e+00f  1
  11  1.1224107e+04 2.37e+00 2.63e+09  -1.0 2.41e+00   8.6 1.00e+00 1.00e+00H  1
  12  1.1235198e+04 1.34e+00 1.06e+09  -1.0 8.55e-01   9.0 1.00e+00 1.00e+00H  1
  13  1.1310356e+04 1.19e+00 1.17e+09  -1.0 4.32e-01   9.4 1.00e+00 1.00e+00h  1
  14  1.7464866e+04 2.24e+01 3.31e+09  -1.0 4.20e+00   9.0 1.00e+00 1.00e+00h  1
  15  1.4554436e+04 3.93e+00 1.03e+09  -1.0 3.00e+00   8.5 1.00e+00 1.00e+00f  1
  16  1.4258472e+04 4.43e-01 3.63e+08  -1.0 3.16e-01   8.0 1.00e+00 1.00e+00H  1
  17  1.3946667e+04 7.38e-01 2.78e+08  -1.0 1.04e+00   8.4 1.00e+00 1.00e+00f  1
  18  1.3907329e+04 7.50e-01 6.11e+07  -1.0 1.98e-01   8.9 1.00e+00 1.00e+00F  1
  19  1.4034848e+04 3.84e-01 8.20e+07  -1.0 1.46e-01   8.4 1.00e+00 1.00e+00H  1
iter    objective    inf_pr   inf_du lg(mu)  ||d||  lg(rg) alpha_du alpha_pr  ls
  20  1.4179701e+04 2.70e-01 5.14e+07  -1.0 6.47e-01   7.9 1.00e+00 1.00e+00h  1
  21  1.3594997e+04 3.27e-01 6.94e+06  -1.0 1.86e-01   7.4 1.00e+00 1.00e+00f  1
  22  1.3305173e+04 1.64e-01 1.56e+07  -1.0 2.21e-01   7.8 1.00e+00 1.00e+00f  1
  23  1.3182872e+04 1.34e-01 1.78e+07  -1.0 9.44e-02   8.3 1.00e+00 1.00e+00f  1
  24  1.2920811e+04 8.59e-02 7.20e+06  -1.0 9.70e-02   7.8 1.00e+00 1.00e+00f  1
  25  1.2855001e+04 6.13e-02 7.73e+06  -1.0 4.65e-02   8.2 1.00e+00 1.00e+00f  1
  26  1.2729911e+04 1.55e-01 2.25e+07  -1.0 3.97e-01   7.7 1.00e+00 1.00e+00f  1
  27  1.2694152e+04 1.52e-01 1.31e+07  -1.0 1.14e-01   8.2 1.00e+00 1.00e+00f  1
  28  1.2623917e+04 1.69e-01 2.38e+06  -1.0 5.17e-02   7.7 1.00e+00 1.00e+00f  1
  29  1.2575039e+04 9.67e-02 3.08e+06  -1.0 2.84e-01   7.2 1.00e+00 1.00e+00f  1
iter    objective    inf_pr   inf_du lg(mu)  ||d||  lg(rg) alpha_du alpha_pr  ls
  30  1.2593469e+04 4.91e-02 3.42e+06  -1.0 9.23e-02   7.6 1.00e+00 1.00e+00h  1
  31  1.2659930e+04 2.32e-02 2.01e+06  -1.0 1.41e-01   7.2 1.00e+00 1.00e+00h  1
  32  1.2688320e+04 1.86e-02 3.01e+06  -1.0 6.99e-02   7.6 1.00e+00 1.00e+00h  1
  33  1.2697652e+04 1.69e-02 3.99e+06  -1.0 3.76e-02   8.0 1.00e+00 1.00e+00h  1
  34  1.2700496e+04 1.61e-02 4.45e+06  -1.0 1.59e-02   8.4 1.00e+00 1.00e+00h  1
  35  1.2712322e+04 1.37e-02 6.48e+06  -1.0 6.77e-02   8.0 1.00e+00 1.00e+00h  1
  36  1.2717143e+04 1.46e-02 7.58e+06  -1.0 3.07e-02   8.4 1.00e+00 1.00e+00h  1
  37  1.2735615e+04 8.03e-02 2.77e+07  -1.0 3.12e-01   7.9 1.00e+00 1.00e+00h  1
  38  1.2741534e+04 1.24e-01 2.10e+07  -1.0 1.65e-01   8.3 1.00e+00 1.00e+00H  1
  39  1.2755532e+04 9.35e-02 3.59e+06  -1.0 3.60e-01   7.9 1.00e+00 1.00e+00H  1
iter    objective    inf_pr   inf_du lg(mu)  ||d||  lg(rg) alpha_du alpha_pr  ls
  40  1.2795891e+04 2.48e-02 3.41e+06  -1.0 2.41e-01   7.4 1.00e+00 1.00e+00H  1
  41  1.2887613e+04 8.31e-03 1.40e+06  -1.0 1.70e-01   6.9 1.00e+00 1.00e+00H  1
  42  1.3038789e+04 1.97e-03 5.05e+05  -1.0 1.02e-01   6.4 1.00e+00 1.00e+00H  1
  43  1.3217660e+04 5.52e-03 5.46e+05  -1.0 9.98e-02   6.0 1.00e+00 1.00e+00H  1
  44  1.3229496e+04 3.44e-03 1.28e+06  -1.0 9.08e-02   7.3 1.00e+00 1.00e+00H  1
  45  1.3233899e+04 1.83e-03 1.92e+06  -1.0 3.70e-02   7.7 1.00e+00 1.00e+00H  1
  46  1.3235538e+04 2.48e-03 2.28e+06  -1.0 1.61e-02   8.1 1.00e+00 1.00e+00H  1
  47r 1.3235538e+04 2.48e-03 9.60e+02  -1.0 0.00e+00   7.7 0.00e+00 4.77e-07R 22
  48r 1.3240922e+04 3.90e-03 1.77e+01  -1.0 1.58e+00    -  1.00e+00 4.16e-02f  1
  49r 1.3368386e+04 3.59e-03 5.32e-02  -1.0 5.99e-02    -  1.00e+00 1.00e+00f  1
iter    objective    inf_pr   inf_du lg(mu)  ||d||  lg(rg) alpha_du alpha_pr  ls
  50r 1.3438108e+04 2.07e-03 3.63e-01  -3.8 4.56e-02    -  1.00e+00 9.82e-01f  1
  51r 1.3540532e+04 1.14e-03 8.56e-03  -3.8 3.38e-02    -  1.00e+00 1.00e+00f  1
  52r 1.3628417e+04 5.95e-04 3.96e-03  -5.7 2.44e-02    -  1.00e+00 1.00e+00f  1
  53r 1.3695654e+04 3.02e-04 2.01e-03  -5.7 1.74e-02    -  1.00e+00 1.00e+00h  1
  54r 1.3745064e+04 1.52e-04 4.73e-04  -5.7 1.23e-02    -  1.00e+00 1.00e+00h  1
  55r 1.3780585e+04 7.62e-05 2.29e-03  -5.7 8.73e-03    -  1.00e+00 1.00e+00h  1
  56  1.3780545e+04 5.86e-06 1.70e+03  -1.0 1.11e-04   7.2 1.00e+00 1.00e+00h  1
  57  1.3779988e+04 5.39e-06 1.70e+03  -1.0 3.35e-04   6.7 1.00e+00 1.00e+00f  1
  58  1.3778164e+04 5.13e-07 1.70e+03  -1.0 1.00e-03   6.2 1.00e+00 1.00e+00f  1
  59  1.3772758e+04 4.62e-07 1.70e+03  -1.0 3.00e-03   5.8 1.00e+00 1.00e+00f  1
iter    objective    inf_pr   inf_du lg(mu)  ||d||  lg(rg) alpha_du alpha_pr  ls
  60  1.3756669e+04 4.11e-06 1.69e+03  -1.0 8.97e-03   5.3 1.00e+00 1.00e+00f  1
  61  1.3709462e+04 3.60e-05 1.67e+03  -1.0 2.66e-02   4.8 1.00e+00 1.00e+00f  1
  62  1.3576749e+04 3.01e-04 1.60e+03  -1.0 7.66e-02   4.3 1.00e+00 1.00e+00f  1
  63  1.3244756e+04 2.21e-03 1.44e+03  -1.0 2.06e-01   3.8 1.00e+00 1.00e+00f  1
  64  1.2612843e+04 1.19e-02 1.11e+03  -1.0 4.65e-01   3.4 1.00e+00 1.00e+00f  1
  65  1.1861208e+04 3.76e-02 6.68e+02  -1.0 7.77e-01   2.9 1.00e+00 1.00e+00f  1
  66  1.1304684e+04 6.63e-02 3.13e+02  -1.0 9.10e-01   2.4 1.00e+00 1.00e+00f  1
  67  1.0887039e+04 7.77e-02 1.23e+02  -1.0 8.15e-01   1.9 1.00e+00 1.00e+00f  1
  68  1.0574210e+04 7.24e-02 4.30e+01  -1.0 6.23e-01   1.5 1.00e+00 1.00e+00f  1
  69  1.0707918e+04 6.06e-02 2.23e+01  -1.0 4.37e-01   1.0 1.00e+00 1.00e+00h  1
iter    objective    inf_pr   inf_du lg(mu)  ||d||  lg(rg) alpha_du alpha_pr  ls
  70  1.0759792e+04 5.03e-02 4.70e+00  -1.0 2.93e-01   0.5 1.00e+00 1.00e+00h  1
  71  1.0793438e+04 4.37e-02 1.81e+00  -1.7 2.09e-01   0.0 1.00e+00 1.00e+00h  1
  72  1.0823257e+04 2.33e-02 1.17e+00  -2.5 1.53e-01  -0.5 1.00e+00 1.00e+00h  1
  73  1.0841154e+04 1.34e-04 5.37e-01  -2.5 1.86e-02  -0.9 1.00e+00 1.00e+00h  1
  74  1.0854047e+04 6.73e-05 5.41e-01  -3.8 4.78e-03  -1.4 1.00e+00 5.00e-01h  2
  75  1.0864333e+04 3.36e-05 4.58e-01  -3.8 3.72e-03  -1.9 1.00e+00 5.00e-01h  2
  76  1.0881426e+04 9.19e-06 5.48e-01  -3.8 3.03e-03  -2.4 1.00e+00 1.00e+00h  1
  77  1.0893182e+04 4.04e-06 2.95e-01  -3.8 2.01e-03  -2.8 1.00e+00 1.00e+00h  1
  78  1.0902670e+04 2.56e-06 2.04e-01  -3.8 1.60e-03  -3.3 1.00e+00 1.00e+00h  1
  79  1.0910461e+04 1.86e-06 1.46e-01  -3.8 1.30e-03  -3.8 1.00e+00 1.00e+00h  1
iter    objective    inf_pr   inf_du lg(mu)  ||d||  lg(rg) alpha_du alpha_pr  ls
  80  1.0917041e+04 1.70e-06 1.09e-01  -3.8 1.08e-03  -4.3 1.00e+00 1.00e+00h  1
  81  1.0920844e+04 1.62e-06 1.19e-01  -5.7 2.48e-03  -4.7 1.00e+00 2.50e-01h  3
  82  1.0924340e+04 1.55e-06 1.22e-01  -5.7 2.27e-03  -5.2 1.00e+00 2.50e-01h  3
  83  1.0927574e+04 1.48e-06 1.20e-01  -5.7 2.09e-03  -5.7 1.00e+00 2.50e-01h  3
  84  1.0930578e+04 1.42e-06 1.15e-01  -5.7 1.94e-03  -6.2 1.00e+00 2.50e-01h  3
  85  1.0933381e+04 1.37e-06 1.09e-01  -5.7 1.80e-03  -6.7 1.00e+00 2.50e-01h  3
  86  1.0936008e+04 1.32e-06 1.02e-01  -5.7 1.68e-03  -7.1 1.00e+00 2.50e-01h  3
  87  1.0938476e+04 1.28e-06 9.49e-02  -5.7 1.58e-03  -7.6 1.00e+00 2.50e-01h  3
  88  1.0940803e+04 1.24e-06 8.79e-02  -5.7 1.48e-03  -8.1 1.00e+00 2.50e-01h  3
  89  1.0943002e+04 1.20e-06 8.11e-02  -5.7 1.40e-03  -8.6 1.00e+00 2.50e-01h  3
iter    objective    inf_pr   inf_du lg(mu)  ||d||  lg(rg) alpha_du alpha_pr  ls
  90  1.0947172e+04 1.13e-06 9.65e-02  -5.7 1.32e-03  -9.0 1.00e+00 5.00e-01h  2
  91  1.0954642e+04 1.39e-06 1.88e-01  -5.7 1.18e-03  -9.5 1.00e+00 1.00e+00w  1
  92  1.0960609e+04 9.28e-07 1.32e-01  -5.7 9.35e-04 -10.0 1.00e+00 1.00e+00h  1
  93  1.0965745e+04 8.60e-07 1.03e-01  -5.7 8.02e-04 -10.5 1.00e+00 1.00e+00h  1
  94  1.0970226e+04 8.03e-07 8.25e-02  -5.7 6.97e-04 -10.9 1.00e+00 1.00e+00h  1
  95  1.0974190e+04 7.56e-07 6.74e-02  -5.7 6.14e-04 -11.4 1.00e+00 1.00e+00h  1
  96  1.0977737e+04 7.15e-07 5.62e-02  -5.7 5.48e-04 -11.9 1.00e+00 1.00e+00h  1
  97  1.0980942e+04 6.80e-07 4.76e-02  -5.7 4.94e-04 -12.4 1.00e+00 1.00e+00h  1
  98  1.0983861e+04 6.49e-07 4.08e-02  -5.7 4.50e-04 -12.9 1.00e+00 1.00e+00h  1
  99  1.0986538e+04 6.22e-07 3.54e-02  -5.7 4.12e-04 -13.3 1.00e+00 1.00e+00h  1
iter    objective    inf_pr   inf_du lg(mu)  ||d||  lg(rg) alpha_du alpha_pr  ls
 100  1.0989007e+04 5.97e-07 3.10e-02  -5.7 3.79e-04 -13.8 1.00e+00 1.00e+00h  1
 101  1.0991298e+04 5.75e-07 2.74e-02  -5.7 3.51e-04 -14.3 1.00e+00 1.00e+00h  1
 102  1.0993432e+04 5.55e-07 2.44e-02  -5.7 3.27e-04 -14.8 1.00e+00 1.00e+00h  1
 103  1.0995429e+04 5.37e-07 2.19e-02  -5.7 3.06e-04 -15.2 1.00e+00 1.00e+00h  1
 104  1.0997303e+04 5.21e-07 1.97e-02  -5.7 2.87e-04 -14.8 1.00e+00 1.00e+00h  1
 105  1.0999069e+04 5.05e-07 1.79e-02  -5.7 2.70e-04 -15.3 1.00e+00 1.00e+00h  1
 106  1.1000737e+04 4.91e-07 1.63e-02  -5.7 2.55e-04 -14.9 1.00e+00 1.00e+00h  1
 107  1.1002318e+04 4.78e-07 1.49e-02  -5.7 2.41e-04 -15.3 1.00e+00 1.00e+00h  1
 108  1.1003819e+04 4.66e-07 1.37e-02  -5.7 2.29e-04 -14.9 1.00e+00 1.00e+00h  1
 109  1.1005247e+04 4.55e-07 1.26e-02  -5.7 2.18e-04 -15.4 1.00e+00 1.00e+00h  1
iter    objective    inf_pr   inf_du lg(mu)  ||d||  lg(rg) alpha_du alpha_pr  ls
 110  1.1006609e+04 4.44e-07 1.17e-02  -5.7 2.07e-04 -15.0 1.00e+00 1.00e+00h  1
 111  1.1007911e+04 4.34e-07 1.08e-02  -5.7 1.98e-04 -15.4 1.00e+00 1.00e+00h  1
 112  1.1009156e+04 4.24e-07 1.01e-02  -5.7 1.89e-04 -15.0 1.00e+00 1.00e+00h  1
 113  1.1010351e+04 4.16e-07 9.40e-03  -5.7 1.81e-04 -15.5 1.00e+00 1.00e+00h  1
 114  1.1011498e+04 4.07e-07 8.79e-03  -5.7 1.74e-04 -15.1 1.00e+00 1.00e+00h  1
 115  1.1012600e+04 3.99e-07 8.24e-03  -5.7 1.67e-04 -15.5 1.00e+00 1.00e+00h  1
 116  1.1013662e+04 3.92e-07 7.74e-03  -5.7 1.61e-04 -15.1 1.00e+00 1.00e+00h  1
 117  1.1014685e+04 3.85e-07 7.29e-03  -5.7 1.55e-04 -15.6 1.00e+00 1.00e+00h  1
 118  1.1015672e+04 3.78e-07 6.88e-03  -5.7 1.50e-04 -15.2 1.00e+00 1.00e+00h  1
 119  1.1016626e+04 3.71e-07 6.50e-03  -5.7 1.44e-04 -15.7 1.00e+00 1.00e+00h  1
iter    objective    inf_pr   inf_du lg(mu)  ||d||  lg(rg) alpha_du alpha_pr  ls
 120  1.1017548e+04 3.65e-07 6.15e-03  -5.7 1.40e-04 -15.2 1.00e+00 1.00e+00h  1
 121  1.1018441e+04 3.59e-07 5.83e-03  -5.7 1.35e-04 -14.8 1.00e+00 1.00e+00h  1
 122  1.1019306e+04 3.54e-07 5.53e-03  -5.7 1.31e-04 -15.3 1.00e+00 1.00e+00h  1
 123  1.1020145e+04 3.48e-07 5.26e-03  -5.7 1.27e-04 -14.8 1.00e+00 1.00e+00h  1
 124  1.1020646e+04 3.45e-07 6.50e-03  -8.6 6.06e-04 -15.3 1.00e+00 1.25e-01h  4
 125  1.1021139e+04 3.42e-07 7.52e-03  -8.6 5.96e-04 -14.9 1.00e+00 1.25e-01h  4
 126  1.1021624e+04 3.39e-07 8.37e-03  -8.6 5.85e-04 -15.4 1.00e+00 1.25e-01h  4
 127  1.1022100e+04 3.36e-07 9.07e-03  -8.6 5.75e-04 -15.0 1.00e+00 1.25e-01h  4
 128  1.1022568e+04 3.33e-07 9.63e-03  -8.6 5.66e-04 -15.4 1.00e+00 1.25e-01h  4
 129  1.1023029e+04 3.30e-07 1.01e-02  -8.6 5.56e-04 -15.0 1.00e+00 1.25e-01h  4
iter    objective    inf_pr   inf_du lg(mu)  ||d||  lg(rg) alpha_du alpha_pr  ls
 130  1.1023482e+04 3.27e-07 1.04e-02  -8.6 5.47e-04 -15.5 1.00e+00 1.25e-01h  4
 131  1.1023929e+04 3.25e-07 1.07e-02  -8.6 5.39e-04 -15.1 1.00e+00 1.25e-01h  4
 132  1.1024368e+04 3.22e-07 1.09e-02  -8.6 5.30e-04 -15.5 1.00e+00 1.25e-01h  4
 133  1.1024800e+04 3.19e-07 1.10e-02  -8.6 5.22e-04 -15.1 1.00e+00 1.25e-01h  4
 134  1.1028208e+04 2.99e-07 9.30e-02  -8.6 5.14e-04 -15.6 1.00e+00 1.00e+00w  1
 135  1.1031141e+04 2.83e-07 7.37e-02  -8.6 4.41e-04 -15.2 1.00e+00 1.00e+00w  1
 136  1.1033789e+04 2.68e-07 6.24e-02  -8.6 3.98e-04 -15.6 1.00e+00 1.00e+00w  1
 137  1.1025226e+04 3.17e-07 1.11e-02  -8.6 3.62e-04 -15.2 1.00e+00 1.25e-01h  3
 138  1.1025646e+04 3.14e-07 1.11e-02  -8.6 5.06e-04 -14.8 1.00e+00 1.25e-01h  4
 139  1.1026059e+04 3.12e-07 1.11e-02  -8.6 4.99e-04 -15.3 1.00e+00 1.25e-01h  4
iter    objective    inf_pr   inf_du lg(mu)  ||d||  lg(rg) alpha_du alpha_pr  ls
 140  1.1026466e+04 3.09e-07 1.11e-02  -8.6 4.91e-04 -14.8 1.00e+00 1.25e-01h  4
 141  1.1026868e+04 3.07e-07 1.10e-02  -8.6 4.84e-04 -15.3 1.00e+00 1.25e-01h  4
 142  1.1027264e+04 3.05e-07 1.09e-02  -8.6 4.77e-04 -14.9 1.00e+00 1.25e-01h  4
 143  1.1027654e+04 3.02e-07 1.08e-02  -8.6 4.70e-04 -15.4 1.00e+00 1.25e-01h  4
 144  1.1028039e+04 3.00e-07 1.07e-02  -8.6 4.64e-04 -14.9 1.00e+00 1.25e-01h  4
 145  1.1028418e+04 2.98e-07 1.06e-02  -8.6 4.57e-04 -15.4 1.00e+00 1.25e-01h  4
 146  1.1028793e+04 2.96e-07 1.04e-02  -8.6 4.51e-04 -15.0 1.00e+00 1.25e-01h  4
 147  1.1031748e+04 2.79e-07 7.38e-02  -8.6 4.45e-04 -15.5 1.00e+00 1.00e+00w  1
 148  1.1034337e+04 2.66e-07 6.01e-02  -8.6 3.89e-04 -15.0 1.00e+00 1.00e+00w  1
 149  1.1036698e+04 2.54e-07 5.17e-02  -8.6 3.54e-04 -15.5 1.00e+00 1.00e+00w  1
iter    objective    inf_pr   inf_du lg(mu)  ||d||  lg(rg) alpha_du alpha_pr  ls
 150  1.1029531e+04 2.92e-07 1.24e-02  -8.6 3.25e-04 -15.1 1.00e+00 2.50e-01h  2
 151  1.1030250e+04 2.88e-07 1.37e-02  -8.6 4.33e-04 -15.6 1.00e+00 2.50e-01h  3
 152  1.1030950e+04 2.84e-07 1.45e-02  -8.6 4.21e-04 -15.1 1.00e+00 2.50e-01h  3
 153  1.1031632e+04 2.80e-07 1.50e-02  -8.6 4.10e-04 -15.6 1.00e+00 2.50e-01h  3
 154  1.1032297e+04 2.77e-07 1.51e-02  -8.6 4.00e-04 -15.2 1.00e+00 2.50e-01h  3
 155  1.1032946e+04 2.73e-07 1.51e-02  -8.6 3.90e-04 -14.8 1.00e+00 2.50e-01h  3
 156  1.1033579e+04 2.70e-07 1.49e-02  -8.6 3.81e-04 -15.2 1.00e+00 2.50e-01h  3
 157  1.1034198e+04 2.67e-07 1.46e-02  -8.6 3.72e-04 -14.8 1.00e+00 2.50e-01h  3
 158  1.1034802e+04 2.63e-07 1.43e-02  -8.6 3.63e-04 -15.3 1.00e+00 2.50e-01h  3
 159  1.1035393e+04 2.60e-07 1.39e-02  -8.6 3.55e-04 -14.9 1.00e+00 2.50e-01h  3
iter    objective    inf_pr   inf_du lg(mu)  ||d||  lg(rg) alpha_du alpha_pr  ls
 160  1.1037706e+04 2.49e-07 4.96e-02  -8.6 3.47e-04 -15.3 1.00e+00 1.00e+00w  1
 161  1.1039790e+04 2.38e-07 4.21e-02  -8.6 3.12e-04 -14.9 1.00e+00 1.00e+00w  1
 162  1.1041719e+04 2.29e-07 3.71e-02  -8.6 2.89e-04 -15.4 1.00e+00 1.00e+00w  1
 163  1.1043511e+04 2.21e-07 3.29e-02  -8.6 2.68e-04 -15.0 1.00e+00 1.00e+00h  1
 164  1.1045184e+04 2.14e-07 2.94e-02  -8.6 2.50e-04 -15.4 1.00e+00 1.00e+00h  1
 165  1.1046752e+04 2.07e-07 2.64e-02  -8.6 2.34e-04 -15.0 1.00e+00 1.00e+00h  1
 166  1.1048226e+04 2.01e-07 2.39e-02  -8.6 2.20e-04 -15.5 1.00e+00 1.00e+00h  1
 167  1.1049616e+04 1.95e-07 2.17e-02  -8.6 2.07e-04 -15.1 1.00e+00 1.00e+00h  1
 168  1.1050931e+04 1.90e-07 1.98e-02  -8.6 1.96e-04 -15.5 1.00e+00 1.00e+00h  1
 169  1.1052178e+04 1.85e-07 1.82e-02  -8.6 1.86e-04 -15.1 1.00e+00 1.00e+00h  1
iter    objective    inf_pr   inf_du lg(mu)  ||d||  lg(rg) alpha_du alpha_pr  ls
 170  1.1053363e+04 1.80e-07 1.67e-02  -8.6 1.77e-04 -15.6 1.00e+00 1.00e+00h  1
 171  1.1054492e+04 1.76e-07 1.55e-02  -8.6 1.68e-04 -15.2 1.00e+00 1.00e+00h  1
 172  1.1055570e+04 1.72e-07 1.43e-02  -8.6 1.60e-04 -15.7 1.00e+00 1.00e+00h  1
 173  1.1056600e+04 1.68e-07 1.33e-02  -8.6 1.53e-04 -15.2 1.00e+00 1.00e+00h  1
 174  1.1057587e+04 1.64e-07 1.24e-02  -8.6 1.47e-04 -14.8 1.00e+00 1.00e+00h  1
 175  1.1058534e+04 1.61e-07 1.16e-02  -8.6 1.41e-04 -15.3 1.00e+00 1.00e+00h  1
 176  1.1059444e+04 1.58e-07 1.09e-02  -8.6 1.35e-04 -14.9 1.00e+00 1.00e+00h  1
 177  1.1060319e+04 1.55e-07 1.02e-02  -8.6 1.30e-04 -15.3 1.00e+00 1.00e+00h  1
 178  1.1061161e+04 1.52e-07 9.58e-03  -8.6 1.25e-04 -14.9 1.00e+00 1.00e+00h  1
 179  1.1061974e+04 1.49e-07 9.03e-03  -8.6 1.21e-04 -15.4 1.00e+00 1.00e+00h  1
iter    objective    inf_pr   inf_du lg(mu)  ||d||  lg(rg) alpha_du alpha_pr  ls
 180  1.1062759e+04 1.47e-07 8.52e-03  -8.6 1.16e-04 -15.0 1.00e+00 1.00e+00h  1
 181  1.1063517e+04 1.44e-07 8.06e-03  -8.6 1.12e-04 -15.4 1.00e+00 1.00e+00h  1
 182  1.1064251e+04 1.42e-07 7.64e-03  -8.6 1.09e-04 -15.0 1.00e+00 1.00e+00h  1
 183  1.1064961e+04 1.39e-07 7.24e-03  -8.6 1.05e-04 -15.5 1.00e+00 1.00e+00h  1
 184  1.1065650e+04 1.37e-07 6.88e-03  -8.6 1.02e-04 -15.1 1.00e+00 1.00e+00h  1
 185  1.1066317e+04 1.35e-07 6.55e-03  -8.6 9.89e-05 -15.5 1.00e+00 1.00e+00h  1
 186  1.1066966e+04 1.33e-07 6.24e-03  -8.6 9.60e-05 -15.1 1.00e+00 1.00e+00h  1
 187  1.1067595e+04 1.31e-07 5.95e-03  -8.6 9.32e-05 -15.6 1.00e+00 1.00e+00h  1
 188  1.1068207e+04 1.29e-07 5.68e-03  -8.6 9.06e-05 -15.2 1.00e+00 1.00e+00h  1
 189  1.1068803e+04 1.28e-07 5.43e-03  -8.6 8.81e-05 -15.6 1.00e+00 1.00e+00h  1
iter    objective    inf_pr   inf_du lg(mu)  ||d||  lg(rg) alpha_du alpha_pr  ls
 190  1.1069383e+04 1.26e-07 5.20e-03  -8.6 8.58e-05 -15.2 1.00e+00 1.00e+00h  1
 191  1.1069947e+04 1.24e-07 4.98e-03  -8.6 8.35e-05 -14.8 1.00e+00 1.00e+00h  1
 192  1.1070498e+04 1.23e-07 4.77e-03  -8.6 8.14e-05 -15.3 1.00e+00 1.00e+00h  1
 193  1.1071035e+04 1.21e-07 4.58e-03  -8.6 7.93e-05 -14.8 1.00e+00 1.00e+00h  1
 194  1.1071558e+04 1.20e-07 4.40e-03  -8.6 7.74e-05 -15.3 1.00e+00 1.00e+00h  1
 195  1.1072070e+04 1.18e-07 4.23e-03  -8.6 7.55e-05 -14.9 1.00e+00 1.00e+00h  1
 196  1.1072569e+04 1.17e-07 4.07e-03  -8.6 7.38e-05 -15.4 1.00e+00 1.00e+00h  1
 197  1.1073057e+04 1.16e-07 3.92e-03  -8.6 7.21e-05 -14.9 1.00e+00 1.00e+00h  1
 198  1.1073534e+04 1.14e-07 3.78e-03  -8.6 7.04e-05 -15.4 1.00e+00 1.00e+00h  1
 199  1.1074000e+04 1.13e-07 3.64e-03  -8.6 6.89e-05 -15.0 1.00e+00 1.00e+00h  1
iter    objective    inf_pr   inf_du lg(mu)  ||d||  lg(rg) alpha_du alpha_pr  ls
 200  1.1074457e+04 1.12e-07 3.51e-03  -8.6 6.74e-05 -15.5 1.00e+00 1.00e+00h  1
 201  1.1074904e+04 1.11e-07 3.39e-03  -8.6 6.59e-05 -15.0 1.00e+00 1.00e+00h  1
 202  1.1075341e+04 1.09e-07 3.28e-03  -8.6 6.46e-05 -15.5 1.00e+00 1.00e+00h  1
 203  1.1075770e+04 1.08e-07 3.17e-03  -8.6 6.32e-05 -15.1 1.00e+00 1.00e+00h  1
 204  1.1076190e+04 1.07e-07 3.07e-03  -8.6 6.20e-05 -15.6 1.00e+00 1.00e+00h  1
 205  1.1076602e+04 1.06e-07 2.97e-03  -8.6 6.07e-05 -15.1 1.00e+00 1.00e+00h  1
 206  1.1077006e+04 1.05e-07 2.88e-03  -8.6 5.95e-05 -15.6 1.00e+00 1.00e+00h  1
 207  1.1077402e+04 1.04e-07 2.79e-03  -8.6 5.84e-05 -15.2 1.00e+00 1.00e+00h  1
 208  1.1077791e+04 1.03e-07 2.70e-03  -8.6 5.73e-05 -14.8 1.00e+00 1.00e+00h  1
 209  1.1078172e+04 1.02e-07 2.62e-03  -8.6 5.62e-05 -15.2 1.00e+00 1.00e+00h  1
iter    objective    inf_pr   inf_du lg(mu)  ||d||  lg(rg) alpha_du alpha_pr  ls
 210  1.1078547e+04 1.01e-07 2.54e-03  -8.6 5.52e-05 -14.8 1.00e+00 1.00e+00h  1
 211  1.1078915e+04 1.00e-07 2.47e-03  -8.6 5.42e-05 -15.3 1.00e+00 1.00e+00h  1
 212  1.1079277e+04 9.94e-08 2.40e-03  -8.6 5.33e-05 -14.9 1.00e+00 1.00e+00h  1
 213  1.1079632e+04 9.86e-08 2.33e-03  -8.6 5.23e-05 -15.3 1.00e+00 1.00e+00h  1
 214  1.1079981e+04 9.77e-08 2.27e-03  -8.6 5.14e-05 -14.9 1.00e+00 1.00e+00h  1
 215  1.1080325e+04 9.69e-08 2.21e-03  -8.6 5.06e-05 -15.4 1.00e+00 1.00e+00h  1
 216  1.1080662e+04 9.61e-08 2.15e-03  -8.6 4.97e-05 -15.0 1.00e+00 1.00e+00h  1
 217  1.1080995e+04 9.53e-08 2.09e-03  -8.6 4.89e-05 -15.4 1.00e+00 1.00e+00h  1
 218  1.1081321e+04 9.45e-08 2.03e-03  -8.6 4.81e-05 -15.0 1.00e+00 1.00e+00h  1
 219  1.1081643e+04 9.38e-08 1.98e-03  -8.6 4.73e-05 -15.5 1.00e+00 1.00e+00h  1
iter    objective    inf_pr   inf_du lg(mu)  ||d||  lg(rg) alpha_du alpha_pr  ls
 220  1.1081960e+04 9.31e-08 1.93e-03  -8.6 4.66e-05 -15.1 1.00e+00 1.00e+00h  1
 221  1.1082272e+04 9.23e-08 1.88e-03  -8.6 4.59e-05 -15.5 1.00e+00 1.00e+00h  1
 222  1.1082579e+04 9.16e-08 1.84e-03  -8.6 4.52e-05 -15.1 1.00e+00 1.00e+00h  1
 223  1.1082881e+04 9.09e-08 1.79e-03  -8.6 4.45e-05 -15.6 1.00e+00 1.00e+00h  1
 224  1.1083179e+04 9.03e-08 1.75e-03  -8.6 4.38e-05 -15.2 1.00e+00 1.00e+00h  1
 225  1.1083473e+04 8.96e-08 1.71e-03  -8.6 4.32e-05 -15.7 1.00e+00 1.00e+00h  1
 226  1.1083762e+04 8.89e-08 1.67e-03  -8.6 4.25e-05 -15.2 1.00e+00 1.00e+00h  1
 227  1.1084047e+04 8.83e-08 1.63e-03  -8.6 4.19e-05 -14.8 1.00e+00 1.00e+00h  1
 228  1.1084329e+04 8.77e-08 1.59e-03  -8.6 4.13e-05 -15.3 1.00e+00 1.00e+00h  1
 229  1.1084606e+04 8.71e-08 1.55e-03  -8.6 4.08e-05 -14.9 1.00e+00 1.00e+00h  1
iter    objective    inf_pr   inf_du lg(mu)  ||d||  lg(rg) alpha_du alpha_pr  ls
 230  1.1084879e+04 8.65e-08 1.52e-03  -8.6 4.02e-05 -15.3 1.00e+00 1.00e+00h  1
 231  1.1085149e+04 8.59e-08 1.49e-03  -8.6 3.96e-05 -14.9 1.00e+00 1.00e+00h  1
 232  1.1085415e+04 8.53e-08 1.45e-03  -8.6 3.91e-05 -15.4 1.00e+00 1.00e+00h  1
 233  1.1085678e+04 8.47e-08 1.42e-03  -8.6 3.86e-05 -15.0 1.00e+00 1.00e+00h  1
 234  1.1085937e+04 8.42e-08 1.39e-03  -8.6 3.81e-05 -15.4 1.00e+00 1.00e+00h  1
 235  1.1086193e+04 8.36e-08 1.36e-03  -8.6 3.76e-05 -15.0 1.00e+00 1.00e+00h  1
 236  1.1086446e+04 8.31e-08 1.33e-03  -8.6 3.71e-05 -15.5 1.00e+00 1.00e+00h  1
 237  1.1086695e+04 8.25e-08 1.31e-03  -8.6 3.66e-05 -15.1 1.00e+00 1.00e+00h  1
 238  1.1086941e+04 8.20e-08 1.28e-03  -8.6 3.62e-05 -15.5 1.00e+00 1.00e+00h  1
 239  1.1087184e+04 8.15e-08 1.25e-03  -8.6 3.57e-05 -15.1 1.00e+00 1.00e+00h  1
iter    objective    inf_pr   inf_du lg(mu)  ||d||  lg(rg) alpha_du alpha_pr  ls
 240  1.1087425e+04 8.10e-08 1.23e-03  -8.6 3.53e-05 -15.6 1.00e+00 1.00e+00h  1
 241  1.1087662e+04 8.05e-08 1.20e-03  -8.6 3.48e-05 -15.2 1.00e+00 1.00e+00h  1
 242  1.1087896e+04 8.00e-08 1.18e-03  -8.6 3.44e-05 -15.6 1.00e+00 1.00e+00h  1
 243  1.1088128e+04 7.96e-08 1.16e-03  -8.6 3.40e-05 -15.2 1.00e+00 1.00e+00h  1
 244  1.1088357e+04 7.91e-08 1.14e-03  -8.6 3.36e-05 -14.8 1.00e+00 1.00e+00h  1
 245  1.1088583e+04 7.86e-08 1.11e-03  -8.6 3.32e-05 -15.3 1.00e+00 1.00e+00h  1
 246  1.1088807e+04 7.82e-08 1.09e-03  -8.6 3.28e-05 -14.8 1.00e+00 1.00e+00h  1
 247  1.1089028e+04 7.77e-08 1.07e-03  -8.6 3.24e-05 -15.3 1.00e+00 1.00e+00h  1
 248  1.1089247e+04 7.73e-08 1.05e-03  -8.6 3.21e-05 -14.9 1.00e+00 1.00e+00h  1
 249  1.1089463e+04 7.68e-08 1.03e-03  -8.6 3.17e-05 -15.4 1.00e+00 1.00e+00h  1
iter    objective    inf_pr   inf_du lg(mu)  ||d||  lg(rg) alpha_du alpha_pr  ls
 250  1.1089677e+04 7.64e-08 1.02e-03  -8.6 3.14e-05 -14.9 1.00e+00 1.00e+00h  1
 251  1.1089888e+04 7.60e-08 9.98e-04  -8.6 3.10e-05 -15.4 1.00e+00 1.00e+00h  1
 252  1.1090097e+04 7.56e-08 9.80e-04  -8.6 3.07e-05 -15.0 1.00e+00 1.00e+00h  1
 253  1.1090304e+04 7.52e-08 9.63e-04  -8.6 3.03e-05 -15.5 1.00e+00 1.00e+00h  1
 254  1.1090509e+04 7.48e-08 9.46e-04  -8.6 3.00e-05 -15.0 1.00e+00 1.00e+00h  1
 255  1.1090711e+04 7.44e-08 9.30e-04  -8.6 2.97e-05 -15.5 1.00e+00 1.00e+00h  1
 256  1.1090912e+04 7.40e-08 9.14e-04  -8.6 2.94e-05 -15.1 1.00e+00 1.00e+00h  1
 257  1.1091110e+04 7.36e-08 8.98e-04  -8.6 2.91e-05 -15.6 1.00e+00 1.00e+00h  1
 258  1.1091306e+04 7.32e-08 8.83e-04  -8.6 2.88e-05 -15.1 1.00e+00 1.00e+00h  1
 259  1.1091501e+04 7.28e-08 8.69e-04  -8.6 2.85e-05 -15.6 1.00e+00 1.00e+00h  1
iter    objective    inf_pr   inf_du lg(mu)  ||d||  lg(rg) alpha_du alpha_pr  ls
 260  1.1091693e+04 7.25e-08 8.54e-04  -8.6 2.82e-05 -15.2 1.00e+00 1.00e+00h  1
 261  1.1091884e+04 7.21e-08 8.41e-04  -8.6 2.79e-05 -14.8 1.00e+00 1.00e+00h  1
 262  1.1092072e+04 7.17e-08 8.27e-04  -8.6 2.76e-05 -15.2 1.00e+00 1.00e+00h  1
 263  1.1092259e+04 7.14e-08 8.14e-04  -8.6 2.73e-05 -14.8 1.00e+00 1.00e+00h  1
 264  1.1092444e+04 7.10e-08 8.01e-04  -8.6 2.71e-05 -15.3 1.00e+00 1.00e+00h  1
 265  1.1092627e+04 7.07e-08 7.88e-04  -8.6 2.68e-05 -14.9 1.00e+00 1.00e+00h  1
 266  1.1092808e+04 7.04e-08 7.76e-04  -8.6 2.66e-05 -15.3 1.00e+00 1.00e+00h  1
 267  1.1092988e+04 7.00e-08 7.64e-04  -8.6 2.63e-05 -14.9 1.00e+00 1.00e+00h  1
 268  1.1093166e+04 6.97e-08 7.52e-04  -8.6 2.61e-05 -15.4 1.00e+00 1.00e+00h  1

Number of Iterations....: 268

                                   (scaled)                 (unscaled)
Objective...............:   1.1093165570726429e+04    1.1093165570726429e+04
Dual infeasibility......:   7.5211388851759153e-04    7.5211388851759153e-04
Constraint violation....:   6.9693238473835158e-08    6.9693238473835158e-08
Complementarity.........:   0.0000000000000000e+00    0.0000000000000000e+00
Overall NLP error.......:   7.5118698525618640e-07    7.5211388851759153e-04


Number of objective function evaluations             = 502
Number of objective gradient evaluations             = 262
Number of equality constraint evaluations            = 507
Number of inequality constraint evaluations          = 0
Number of equality constraint Jacobian evaluations   = 270
Number of inequality constraint Jacobian evaluations = 0
Number of Lagrangian Hessian evaluations             = 268
Total CPU secs in IPOPT (w/o function evaluations)   =      2.710
Total CPU secs in NLP function evaluations           =      0.897

EXIT: Solved To Acceptable Level.
Note: The following floating-point exceptions are signalling: IEEE_UNDERFLOW_FLAG IEEE_DENORMAL

************************ CUTEst statistics ************************


 Package used            :  IPOPT
 Problem                 :  LUKVLE18  
 # variables             =            9997
 # constraints           =            7497
 # objective functions   =        0.7650000E+03
 # objective gradients   =        0.2630000E+03
 # objective Hessians    =        0.2680000E+03
 # Hessian-vector prdct  =        0.0000000E+00
 # constraints functions =        0.7790000E+03
 # constraints gradients =        0.2720000E+03
 # constraints Hessians  =        0.2680000E+03
 Exit code               =               1
 Final f                 =   0.1109317E+05
 Set up time             =            0.22 seconds
 Solve time              =            3.68 seconds


******************************************************************

System Time =       3.6150000095 s.
